130
0 128 52 83 43 129 120 101 8 96 
124 127 111 67 15 80 88 60 48 75 
78 74 95 62 73 13 2 97 117 63 
81 107 25 47 20 46 126 4 9 105 
90 82 36 39 38 102 14 29 70 118 
11 76 37 33 49 53 61 44 57 26 
98 56 92 50 16 10 35 123 125 87 
55 40 22 114 65 34 108 104 23 17 
116 51 58 6 5 28 54 32 27 64 
84 59 77 7 109 122 42 18 1 89 
30 119 21 100 3 85 99 66 31 41 
113 93 115 71 24 68 72 12 110 91 
69 45 79 103 121 112 19 106 86 94 
